100
1000
300
298
297
294
292
290
287
287
286
283
282
281
280
280
275
273
270
269
269
268
267
266
265
265
265
264
262
262
262
261
255
254
253
252
252
250
246
245
238
238
237
236
236
232
231
231
230
229
228
228
228
227
224
223
220
217
216
216
215
214
213
211
203
203
201
199
198
198
197
197
195
187
185
181
178
171
170
165
165
162
160
158
150
147
139
135
131
131
129
128
127
126
118
117
115
107
107
107
106
105
